unsat
(:conflicts            1
 :max-generation       1
 :max-memory           23.48
 :memory               21.03
 :mk-bool-var          1400
 :mk-clause            158
 :mk-clause-binary     1598
 :num-allocs           4480185
 :num-checks           1
 :quant-instantiations 170
 :rlimit-count         90357
 :time                 0.01)
